unsat
(define-fun f ((x (_ BitVec 64))) (_ BitVec 64) (let ((_let_1 (shesh x))) (let ((_let_2 (arba x))) (let ((_let_3 (bvand #b0000000000000000000000000000000000000000000000000000000000000001 (ehad x)))) (im (bvand #b0000000000000000000000000000000000000000000000000000000000000001 _let_2) (im _let_3 _let_1 _let_2) (im _let_3 _let_2 _let_1))))))
0.04user 0.00system 0:00.05elapsed 98%CPU (0avgtext+0avgdata 27932maxresident)k
0inputs+8outputs (0major+1687minor)pagefaults 0swaps
